26	3	3
5	8	8	83	76	128	
0	0	0	0	4	9	2	2	6	9	24	2	3	4	5	6	7	8	9	10	11	12	13	14	15	16	17	18	19	20	21	22	23	24	25
222	2	1	3	7	10	2	4	8	9	1	13
5	1	1	2	6	8	10	3	10	6	1	11
250	3	2	2	10	5	6	10	8	9	1	13
1	2	1	1	6	7	10	10	4	9	1	12
3	3	3	3	6	7	8	8	8	3	1	26
2	2	1	1	7	5	2	8	9	9	1	26
261	2	3	2	7	5	7	6	7	6	1	26
173	2	3	1	2	6	1	8	6	9	1	26
6	1	3	2	6	2	5	6	1	9	1	26
104	4	2	3	4	7	5	2	5	3	1	26
166	2	1	2	5	1	8	6	9	6	1	13
208	3	3	1	5	5	10	1	1	7	1	16
113	3	1	2	6	3	3	7	10	8	1	26
200	1	2	3	5	5	9	10	10	9	1	26
2	3	1	3	8	4	6	3	5	10	1	26
200	3	3	1	5	9	10	2	5	8	1	26
319	5	1	1	8	10	3	8	10	4	1	22
1	3	2	2	5	6	6	7	2	5	1	26
1	4	3	1	4	7	10	3	7	9	1	26
2	4	1	1	2	4	2	7	6	7	1	26
3	3	1	2	6	1	6	6	3	1	1	26
3	4	2	2	4	1	10	7	8	9	1	26
4	5	1	2	10	2	5	5	8	7	1	26
102	5	2	2	10	2	3	9	4	9	1	26
0	0	0	0	8	5	3	10	2	9	0
